25259 24852 24187 23700 23314 23031 22492 22376 21715 21357 20542 20361 19971 19700 19406 19207 18789 18281 18066 17597 17487 17146 16880 16679 16133 16111 15644 15634 15254 14926 14854 14669 14446 14321 14130 13910 13669 13594 13490 13222 13098 13055 12905 12816 12716 12483 12489 12387 12316 12221 12198 12129 12072 11994 11917 11852 11752 11675 11599 11582 11547 11513 11492 11403 11432 11393 11328 11268 11168 11170 11095 11016 10931 10866 10846 10818 10758 10795 10733 10667 10604 10642 10588 10533 10518 10527 10450 10447 10397 10384 10361 10310 10303 10292 10260 10204 10192 10179 10183 10108 10105 10091 10048 9979 9978 9917 9866 9904 9889 9919 9899 9892 9830 9824 9823 9831 9754 9746 9761 9772 9702 9673 9621 9553 9544 9499 9556 9533 9509 9482 9529 9466 9455 9345 9345 9332 9327 9332 9275 9266 9267 9258 9271 9230 9244 9256 9222 9237 9228 9232 9223 9190 9151 9150 9119 9092 9081 9102 9079 9066 8993 9014 9031 8969 9031 9032 9032 9013 8980 8950 8953 8930 8936 8863 8877 8849 8846 8905 8844 8826 8855 8853 8853 8857 8806 8841 8801 8745 8690 8654 8594 8557 8507 8454 8412 8373 8330 8269 8214 8168 8117 8064 8024 7993 7968 7885 7885 7867 7855 7810 7770 7720 7689 7618 7575 7541 7521 7501 7461 7420 7359 7353 7328 7300 7262 7218 7198 7157 7119 7095 7064 7044 7044 7029 7003 6984 6983 6973 6959 6953 6945 6938 6925 6890 6883 6873 6849 6832 6822 6813 6806 6792 6787 6776 6772 6754 6749 6734 6727 6709 6698 6685 6672 6669 6652 6637 6616 6590 6577 6564 6533 6527 6522 6512 6505 6485 6475 6466 6463 6456 6450 6444 6439 6430 6423 6413 6394 6384 6373 6361 6352 6345 6339 6334 6329 6327 6318 6311 6288 6272 6265 6249 6249 6246 6235 6211 6209 6205 6190 6179 6164 6164 6157 6154 6137 6137 6118 6105 6094 6091 6079 6059 6054 6045 6033 6027 6020 6017 6015 6011 6001 5999 5990 5980 5972 5961 5959 5956 5949 5946 5944 5939 5933 5928 5914 5908 5890 5885 5872 5864 5859 5858 5844 5838 5832 5828 5822 5822 5814 5812 5809 5807 5802 5793 5791 5781 5775 5767 5763 5754 5753 5747 5746 5746 5741 5739 5738 5736 5731 5731 5728 5724 5718 5713 5710 5705 5702 5684 5681 5675 5666 5666 5661 5660 5649 5649 5615 5611 5610 5606 5605 5601 5596 5591 5589 5582 5572 5572 5569 5566 5565 5550 5547 5537 5533 5529 5528 5524 5514 5504 5504 5502 5499 5494 5493 5481 5478 5470 5468 5465 5458 5455 5446 5429 5429 5429 5418 5410 5408 5408 5406 5397 5396 5382 5381 5377 5376 5374 5374 5371 5360 5345 5340 5327 5327 5327 5317 5316 5314 5306 5304 5297 5293 5285 5282 5280 5279 5268 5266 5258 5254 5239 5230 5225 5219 5215 5211 5210 5208 5208 5202 5202 5200 5196 5196 5196 5190 5190 5187 5186 5183 5180 5177 5173 5170 5168 5161 5155 5152 5152 5152 5145 5143 5142 5131 5130 5116 5114 5110 5109 5108 5106 5079 5078 5075 5071 5071 5070 5067 5066 5062 5057 5052 5047 5043 5043 5040 5035 5035 5026 5026 5026 5026 5018 5018 5018 5015 5008 5008 5001 4991 4988 4988 4988 4988 4988 4988 4988 4973 4973 4973 4971 4971 4958 4957 4957 4957 4943 4941 4937 4929 4929 4925 4918 4918 4915 4914 4913 4911 4911 4909 4908 4905 4902 4901 4900 4899 4899 4880 4876 4876 4876 4866 4866 4835 4835 4811 4811 4811 4811 4811 4811 4811 4811 4811 4799 4799 4798 4796 4791 4791 4791 4789 4788 4787 4786 4784 4749 4746 4746 4746 4744 4744 4741 4735 4735 4732 4706 4703 4703 4696 4673 4663 4656 4654 4648 4646 4646 4642 4638 4638 4637 4637 4637 4637 4637 4632 4632 4624 4624 4624 4624 4624 4622 4622 4622 4622 4613 4613 4613 4613 4613 4612 4612 4612 4612 4612 4612 4612 4612 4612 4612 4611 4611 4611 4611 4611 4611 4611 4606 4606 4606 4606 4606 4606 4605 4605 4605 4605 4604 4604 4597 4597 4596 4596 4596 4594 4594 4594 4594 4594 4594 4594 4594 4584 4584 4584 4584 4584 4584 4584 4584 4584 4582 4582 4582 4582 4582 4582 4582 4582 4582 4579 4578 4576 4576 4573 4548 4537 4525 4525 4525 4525 4524 4524 4524 4523 4523 4518 4518 4518 4515 4515 4515 4515 4514 4514 4509 4505 4490 4490 4479 4474 4474 4474 4474 4473 4469 4469 4469 4465 4465 4465 4465 4465 4461 4461 4461 4461 4461 4461 4460 4460 4460 4460 4460 4460 4460 4460 4460 4460 4460 4460 4460 4460 4460 4459 4459 4459 4459 4459 4459 4459 4459 4459 4459 4459 4459 4459 4459 4457 4457 4453 4453 4453 4452 4452 4452 4451 4451 4451 4451 4451 4451 4449 4449 4449 4449 4449 4449 4449 4449 4449 4449 4449 4449 4449 4449 4449 4441 4441 4441 4441 4441 4441 4441 4441 4441 4441 4441 4441 4441 4439 4439 4435 4433 4433 4433 4433 4433 4433 4433 4433 4433 4433 4433 4433 4433 4433 4433 4433 4433 4433 4433 4433 4433 4433 4433 4433 4433 4433 4433 4433 4432 4432 4432 4432 4432 4432 4432 4432 4425 4425 4425 4425 4425 4425 4425 4425 4425 4425 4425 4425 4425 4425 4425 4425 4425 4425 4425 4425 4425 4425 4425 4425 4425 4423 4415 4415 4415 4415 4415 4415 4415 4415 4414 4414 4414 4413 4413 4413 4409 4409 4409 4409 4407 4407 4407 4407 4407 4407 4407 4407 4407 4407 4407 4407 4407 4407 4407 4407 4407 4407 4407 4407 4407 4407 4407 4407 4404 4404 4404 4404 4404 4404 4404 4403 4403 4403 4401 4401 4401 4401 4401 4401 4401 4401 4401 4401 4401 4395 4395 4395 4395 4394 4394 4378 4378 4378 4378 4378 4378 4378 4378 4378 4378 4378 4378 4378 4376 4376 4376 4376 4376 4376 4369 4369 4369 4368 4346 4346 4346 4346 4346 4346 4346 4346 4346 4346 4346 4346 4346 4346 4346 4346 4346 4346 4346 4346 4336 4336 4336 4336 4336 4336 4336 4336 4336 4336 4336 4336 4336 4333 4333 4333 4333 4333 4333 4333 4333 4331 4331 4331 4331 4331 4331 4331 4331 4331 4331 4331 4331 4331 4331 4331 4331 4331 4331 4331 4331 4331 4331 4331 4331 4331 4331 4331 4331 4331 4331 4331 4331 4331 4331 4331 4331 4331 4330 4330 4330 4330 4330 4330 4330 4330 4330 4330 4330 4330 4330 4330 4330 4330 4330 4330 4330 4330 4330 4330 4330 4330 4330 4330 4330 4330 4330 4330 4330 4324 4324 4324 4324 4324 4324 4324 4324 4323 4323 4323 4323 4323 4323 4323 4323 4323 4323 4323 4323 4323 4323 4323 4323 4323 4323 4323 4323 4323 4323 4323 4323 4323 4323 4323 4323 4323 4323 4323 4323 4323 4323 4323 4323 4323 4323 4323 4323 4320 4320 4320 4320 4320 4320 4320 4320 4320 4320 4320 4320 4320 4320 4320 4320 4320 4320 4320 4320 4320 4320 4320 4320 4320 4320 4320 4320 4320 4320 4320 4320 4320 4320 4320 4320 4320 4320 4320 4320 4320 4320 4320 4320 4320 4320 4320 4320 4320 4320 4320 4320 4320 4320 4320 4320 4320 4320 4320 4320 4320 4320 4320 4320 4320 4320 4320 4320 4320 4320 4320 4320 4320 4320 4320 4320 4320 4320 4320 4320 4320 4320 4320 4320 4320 4320 4320 4320 4320 4320 4320 4320 4320 4320 4320 4320 4320 4320 4320 4320 4320 4320 4320 4320 4320 4320 4320 4320 4320 4320 4320 4320 4320 4320 4320 4320 4320 4320 4320 4320 4320 4320 4320 4320 4320 4320 4320 4320 4320 4320 4320 4320 4320 4320 4320 4320 4320 4320 4320 4320 4320 4320 4320 4320 4320 4320 4320 4320 4320 4320 4320 4320 4320 4320 4320 4320 4320 4320 4320 4320 4320 4320 4320 4320 4320 4320 4320 4320 4320 4320 4320 4320 4320 4320 4320 4320 4320 4320 4320 4320 4320 4320 4320 4320 4320 4320 4320 4320 4320 4320 4320 4320 4320 4320 4320 4320 4320 4320 4320 4320 4320 4320 4320 4320 4320 4320 4320 4320 4320 4320 4320 4320 4320 4320 4320 4320 4320 4320 4320 4320 4320 4320 4320 4320 4320 4320 4320 4320 4320 4320 4320 4320 4320 4320 4320 4320 4320 4320 4320 4320 4320 4320 4320 4320 4320 4320 4320 4320 4320 4320 4320 4320 4320 4320 4320 4320 4320 4320 4320 4320 4320 4320 4320 4320 4320 4320 4320 4320 4320 4320 4320 4320 4320 4320 4320 4320 4320 4320 4320 4320 4320 4320 4320 4320 4320 4320 4320 4320 4320 4320 4320 4320 4320 4320 4320 4320 4320 4320 4320 4320 4320 4320 4320 4320 4320 4320 4320 4320 4320 4320 4320 4320 4320 4320 4320 4320 4320 4320 4320 4320 4320 4320 4320 4320 4320 4320 4320 4320 4320 4320 4320 4320 4320 4320 4320 4320 4320 4320 4320 4320 4320 4320 4320 4320 4320 4320 4320 4320 4320 4320 4320 4320 4320 4320 4320 4320 4320 4320 4320 4320 4320 4320 4320 4320 4320 4320 4320 4320 4320 4320 4320 4320 4320 4320 4320 4320 4320 4320 4320 4320 4320 4320 4320 4320 4320 4320 4320 4320 4320 4320 4320 4320 4320 4320 4320 4320 4320 4320 4320 4320 4320 4320 4320 4320 4320 4320 4320 4320 4320 4320 4320 4320 4320 4320 4320 4320 4320 4320 4320 4320 4320 4320 4320 4320 4320 4320 4320 4320 4320 4320 4320 4320 4320 4320 4320 4320 4320 4320 4320 4320 4320 4320 4320 4320 4320 4320 4320 4318 4318 4318 4318 4318 4318 4318 4318 4318 4318 4318 4316 4316 4316 4316 4316 4316 4316 4316 4316 4316 4316 4316 4316 4316 4316 4316 4316 4316 4316 4316 4316 4316 4316 4316 4316 4316 4316 4316 4316 4316 4316 4316 4316 4316 4316 4316 4316 4316 4316 4316 4316 4316 4316 4316 4316 4316 4316 4316 4316 4316 4316 4316 4316 4316 4316 4316 4316 4316 4316 4316 4316 4316 4316 4316 4316 4316 4316 4316 4316 4316 4316 4316 4316 4316 4316 4316 4316 4316 4316 4316 4316 4316 4316 4316 4316 4316 4316 4316 4316 4316 4316 4316 4316 4316 4316 4316 4316 4316 4316 4316 4316 4316 4316 4316 4316 4316 4316 4316 4316 4316 4316 4316 4316 4316 4316 4316 4316 4316 4316 4316 4316 4316 4316 4316 4316 4316 4316 4316 4316 4316 4316 4316 4316 4316 4316 4316 4316 4316 4316 4316 4316 4316 4316 4316 4316 4316 4316 4316 4316 4316 4316 4316 4316 4316 4316 4316 4316 4316 4316 4316 4316 4316 4316 4316 4316 4316 4316 4316 4316 4316 4316 4316 4316 4316 4316 4316 4316 4316 4316 4316 4316 4316 4316 4316 4316 4316 4316 4316 4316 4316 4316 4316 4316 4316 4316 4316 4316 4316 4316 4316 4316 4316 4316 4316 4316 4316 4316 4316 4316 4316 4316 4316 4316 4316 4316 4316 4316 4316 4316 4316 4316 4316 4316 4316 4316 4316 4316 4316 4316 4316 4316 4316 4316 4316 4316 4316 4316 4316 4316 4316 4316 4316 4316 4316 4316 4316 4316 4316 4316 4316 4316 4316 4316 4316 4316 4316 4316 4316 4316 4316 4316 4316 4316 4316 4316 4316 4316 4316 4316 4316 4316 4316 4316 4316 4316 4316 4316 4316 4316 4316 4316 4316 4316 4316 4316 4316 4316 4316 4316 4316 4316 4316 4316 4316 4316 4316 4316 4316 4316 4316 4316 4316 4316 4316 4316 4316 4316 4316 4316 4316 4316 4316 4316 4316 4316 4316 4316 4316 4316 4316 4316 4316 4316 4316 4316 4316 4316 4316 4316 4316 4316 4316 4316 4316 4316 4316 4316 4316 4316 4316 4316 4316 4316 4316 4316 4316 4316 4316 4316 4316 4316 4316 4316 4316 4316 4316 4316 4316 4316 4316 4316 4316 4316 4316 4316 4316 4316 4316 4316 4316 4316 4316 4316 4316 4316 4316 4316 4316 4316 4316 4316 4316 4316 4316 4316 4316 4316 4316 4316 4316 4316 4316 4316 4316 4316 4316 4316 4316 4316 4316 4316 4316 4316 4316 4316 4316 4316 4316 4316 4316 4316 4316 4316 4316 4316 4316 4316 4316 4316 4316 4316 4316 4316 4316 4316 4316 4316 4316 4316 4316 4316 4316 4316 4316 4316 4316 4316 4316 4316 4316 4316 4316 4316 4316 4316 4316 4316 4316 4316 4316 4316 4316 4316 4316 4316 4316 4316 4316 4316 4316 4316 4316 4316 4316 4316 4316 4316 4316 4316 4316 4316 4316 4316 4316 4316 4316 4316 4316 4316 4316 4316 4316 4316 4316 4316 4316 4316 4316 4316 4316 4316 4316 4316 4316 4316 4316 4316 4316 4316 4316 4316 
16415 15912 15159 14536 14152 13939 13200 13094 12626 12201 11546 11324 10892 10591 10193 9983 9563 9158 8820 8389 8212 7881 7652 7410 6875 6853 6449 6357 6054 5768 5643 5462 5272 5124 4949 4748 4567 4432 4333 4155 4042 3981 3806 3716 3559 3402 3329 3263 3205 3143 3080 2998 2930 2852 2775 2719 2645 2573 2498 2481 2422 2417 2379 2335 2294 2239 2174 2111 2050 2020 1965 1908 1827 1781 1742 1713 1685 1648 1624 1576 1531 1526 1469 1447 1427 1410 1372 1347 1293 1285 1264 1247 1221 1201 1182 1168 1156 1134 1119 1083 1073 1043 1018 996 964 922 885 875 859 840 832 818 798 780 772 761 739 729 710 696 651 616 603 569 560 557 554 549 543 535 523 497 488 458 458 431 412 409 409 400 392 387 378 373 368 355 345 325 321 306 300 300 250 243 214 208 206 203 197 158 145 142 112 112 109 103 87 87 80 66 31 29 22 21 17 16 15 13 12 12 9 8 8 7 7 6 0 0 0 0 0 0 0 0 0 0 0 0 0 0 0 0 0 0 0 0 0 0 0 0 0 0 0 0 0 0 0 0 0 0 0 0 0 0 0 0 0 0 0 0 0 0 0 0 0 0 0 0 0 0 0 0 0 0 0 0 0 0 0 0 0 0 0 0 0 0 0 0 0 0 0 0 0 0 0 0 0 0 0 0 0 0 0 0 0 0 0 0 0 0 0 0 0 0 0 0 0 0 0 0 0 0 0 0 0 0 0 0 0 0 0 0 0 0 0 0 0 0 0 0 0 0 0 0 0 0 0 0 0 0 0 0 0 0 0 0 0 0 0 0 0 0 0 0 0 0 0 0 0 0 0 0 0 0 0 0 0 0 0 0 0 0 0 0 0 0 0 0 0 0 0 0 0 0 0 0 0 0 0 0 0 0 0 0 0 0 0 0 0 0 0 0 0 0 0 0 0 0 0 0 0 0 0 0 0 0 0 0 0 0 0 0 0 0 0 0 0 0 0 0 0 0 0 0 0 0 0 0 0 0 0 0 0 0 0 0 0 0 0 0 0 0 0 0 0 0 0 0 0 0 0 0 0 0 0 0 0 0 0 0 0 0 0 0 0 0 0 0 0 0 0 0 0 0 0 0 0 0 0 0 0 0 0 0 0 0 0 0 0 0 0 0 0 0 0 0 0 0 0 0 0 0 0 0 0 0 0 0 0 0 0 0 0 0 0 0 0 0 0 0 0 0 0 0 0 0 0 0 0 0 0 0 0 0 0 0 0 0 0 0 0 0 0 0 0 0 0 0 0 0 0 0 0 0 0 0 0 0 0 0 0 0 0 0 0 0 0 0 0 0 0 0 0 0 0 0 0 0 0 0 0 0 0 0 0 0 0 0 0 0 0 0 0 0 0 0 0 0 0 0 0 0 0 0 0 0 0 0 0 0 0 0 0 0 0 0 0 0 0 0 0 0 0 0 0 0 0 0 0 0 0 0 0 0 0 0 0 0 0 0 0 0 0 0 0 0 0 0 0 0 0 0 0 0 0 0 0 0 0 0 0 0 0 0 0 0 0 0 0 0 0 0 0 0 0 0 0 0 0 0 0 0 0 0 0 0 0 0 0 0 0 0 0 0 0 0 0 0 0 0 0 0 0 0 0 0 0 0 0 0 0 0 0 0 0 0 0 0 0 0 0 0 0 0 0 0 0 0 0 0 0 0 0 0 0 0 0 0 0 0 0 0 0 0 0 0 0 0 0 0 0 0 0 0 0 0 0 0 0 0 0 0 0 0 0 0 0 0 0 0 0 0 0 0 0 0 0 0 0 0 0 0 0 0 0 0 0 0 0 0 0 0 0 0 0 0 0 0 0 0 0 0 0 0 0 0 0 0 0 0 0 0 0 0 0 0 0 0 0 0 0 0 0 0 0 0 0 0 0 0 0 0 0 0 0 0 0 0 0 0 0 0 0 0 0 0 0 0 0 0 0 0 0 0 0 0 0 0 0 0 0 0 0 0 0 0 0 0 0 0 0 0 0 0 0 0 0 0 0 0 0 0 0 0 0 0 0 0 0 0 0 0 0 0 0 0 0 0 0 0 0 0 0 0 0 0 0 0 0 0 0 0 0 0 0 0 0 0 0 0 0 0 0 0 0 0 0 0 0 0 0 0 0 0 0 0 0 0 0 0 0 0 0 0 0 0 0 0 0 0 0 0 0 0 0 0 0 0 0 0 0 0 0 0 0 0 0 0 0 0 0 0 0 0 0 0 0 0 0 0 0 0 0 0 0 0 0 0 0 0 0 0 0 0 0 0 0 0 0 0 0 0 0 0 0 0 0 0 0 0 0 0 0 0 0 0 0 0 0 0 0 0 0 0 0 0 0 0 0 0 0 0 0 0 0 0 0 0 0 0 0 0 0 0 0 0 0 0 0 0 0 0 0 0 0 0 0 0 0 0 0 0 0 0 0 0 0 0 0 0 0 0 0 0 0 0 0 0 0 0 0 0 0 0 0 0 0 0 0 0 0 0 0 0 0 0 0 0 0 0 0 0 0 0 0 0 0 0 0 0 0 0 0 0 0 0 0 0 0 0 0 0 0 0 0 0 0 0 0 0 0 0 0 0 0 0 0 0 0 0 0 0 0 0 0 0 0 0 0 0 0 0 0 0 0 0 0 0 0 0 0 0 0 0 0 0 0 0 0 0 0 0 0 0 0 0 0 0 0 0 0 0 0 0 0 0 0 0 0 0 0 0 0 0 0 0 0 0 0 0 0 0 0 0 0 0 0 0 0 0 0 0 0 0 0 0 0 0 0 0 0 0 0 0 0 0 0 0 0 0 0 0 0 0 0 0 0 0 0 0 0 0 0 0 0 0 0 0 0 0 0 0 0 0 0 0 0 0 0 0 0 0 0 0 0 0 0 0 0 0 0 0 0 0 0 0 0 0 0 0 0 0 0 0 0 0 0 0 0 0 0 0 0 0 0 0 0 0 0 0 0 0 0 0 0 0 0 0 0 0 0 0 0 0 0 0 0 0 0 0 0 0 0 0 0 0 0 0 0 0 0 0 0 0 0 0 0 0 0 0 0 0 0 0 0 0 0 0 0 0 0 0 0 0 0 0 0 0 0 0 0 0 0 0 0 0 0 0 0 0 0 0 0 0 0 0 0 0 0 0 0 0 0 0 0 0 0 0 0 0 0 0 0 0 0 0 0 0 0 0 0 0 0 0 0 0 0 0 0 0 0 0 0 0 0 0 0 0 0 0 0 0 0 0 0 0 0 0 0 0 0 0 0 0 0 0 0 0 0 0 0 0 0 0 0 0 0 0 0 0 0 0 0 0 0 0 0 0 0 0 0 0 0 0 0 0 0 0 0 0 0 0 0 0 0 0 0 0 0 0 0 0 0 0 0 0 0 0 0 0 0 0 0 0 0 0 0 0 0 0 0 0 0 0 0 0 0 0 0 0 0 0 0 0 0 0 0 0 0 0 0 0 0 0 0 0 0 0 0 0 0 0 0 0 0 0 0 0 0 0 0 0 0 0 0 0 0 0 0 0 0 0 0 0 0 0 0 0 0 0 0 0 0 0 0 0 0 0 0 0 0 0 0 0 0 0 0 0 0 0 0 0 0 0 0 0 0 0 0 0 0 0 0 0 0 0 0 0 0 0 0 0 0 0 0 0 0 0 0 0 0 0 0 0 0 0 0 0 0 0 0 0 0 0 0 0 0 0 0 0 0 0 0 0 0 0 0 0 0 0 0 0 0 0 0 0 0 0 0 0 0 0 0 0 0 0 0 0 0 0 0 0 0 0 0 0 0 0 0 0 0 0 0 0 0 0 0 0 0 0 0 0 0 0 0 0 0 0 0 0 0 0 0 0 0 0 0 0 0 0 0 0 0 0 0 0 0 0 0 0 0 0 0 0 0 0 0 0 0 0 0 0 0 0 0 0 0 0 0 0 0 0 0 0 0 0 0 0 0 0 0 0 0 0 0 0 0 0 0 0 0 0 0 0 0 0 0 0 0 0 0 0 0 0 0 0 0 0 0 0 0 0 0 0 0 0 0 0 0 0 0 0 0 0 0 0 0 0 0 0 0 0 0 0 0 0 0 0 0 0 0 0 0 0 0 0 0 0 0 0 0 0 0 0 0 0 0 0 0 0 0 0 0 0 0 0 0 0 0 0 0 0 0 0 0 0 0 0 0 0 0 0 0 0 0 0 0 0 0 0 0 0 0 0 0 0 0 0 0 0 0 0 0 0 0 0 0 0 0 0 0 0 0 0 0 0 0 0 0 0 0 0 0 0 0 0 0 0 0 0 0 0 0 0 0 0 0 0 0 0 0 0 0 0 0 0 0 0 0 0 0 0 0 0 0 0 0 0 0 0 0 0 0 0 0 0 0 0 0 0 0 0 0 0 0 0 0 0 0 0 0 0 0 0 0 0 0 0 0 0 0 0 0 0 0 0 0 0 0 0 0 0 0 0 0 0 0 0 0 0 0 0 0 0 0 0 0 0 0 0 0 0 0 0 0 0 0 0 0 0 0 0 0 0 0 0 0 0 0 0 0 0 0 0 0 0 0 0 0 0 0 0 0 0 0 0 0 0 0 0 0 0 0 0 0 0 0 0 0 0 0 0 0 0 0 0 0 0 0 0 0 0 0 0 0 0 0 0 0 0 0 0 0 0 0 0 0 0 0 0 0 0 0 0 0 0 0 0 0 0 0 0 0 0 0 0 0 0 0 0 0 0 0 0 0 0 0 0 0 0 0 0 0 0 0 0 0 0 0 0 0 0 0 0 0 0 0 0 0 0 0 0 0 0 0 